p cnf 336 977
1 2 3 4 5 6 7 8 9 10 11 12 13 14 15 16 0
32 17 18 19 20 21 22 23 24 25 26 27 28 29 30 31 0
33 34 35 36 37 38 39 40 41 42 43 44 45 46 47 48 0
64 49 50 51 52 53 54 55 56 57 58 59 60 61 62 63 0
65 66 67 68 69 70 71 72 73 74 75 76 77 78 79 80 0
96 81 82 83 84 85 86 87 88 89 90 91 92 93 94 95 0
97 98 99 100 101 102 103 104 105 106 107 108 109 110 111 112 0
128 113 114 115 116 117 118 119 120 121 122 123 124 125 126 127 0
129 130 131 132 133 134 135 136 137 138 139 140 141 142 143 144 0
160 145 146 147 148 149 150 151 152 153 154 155 156 157 158 159 0
161 162 163 164 165 166 167 168 169 170 171 172 173 174 175 176 0
192 177 178 179 180 181 182 183 184 185 186 187 188 189 190 191 0
193 194 195 196 197 198 199 200 201 202 203 204 205 206 207 208 0
224 209 210 211 212 213 214 215 216 217 218 219 220 221 222 223 0
225 226 227 228 229 230 231 232 233 234 235 236 237 238 239 240 0
256 241 242 243 244 245 246 247 248 249 250 251 252 253 254 255 0
257 258 259 260 261 262 263 264 265 266 267 268 269 270 271 272 0
-1 -17 0
-1 -33 0
-1 -273 0
-33 -17 0
-273 -17 0
-273 -33 0
-65 -49 0
-81 -49 0
-274 -49 0
-81 -65 0
-274 -65 0
-274 -81 0
-113 -97 0
-129 -97 0
-275 -97 0
-129 -113 0
-275 -113 0
-275 -129 0
-161 -145 0
-177 -145 0
-276 -145 0
-177 -161 0
-276 -161 0
-276 -177 0
-209 -193 0
-225 -193 0
-241 -193 0
-257 -193 0
273 -193 0
274 -193 0
275 -193 0
276 -193 0
-225 -209 0
-241 -209 0
-257 -209 0
273 -209 0
274 -209 0
275 -209 0
276 -209 0
-241 -225 0
-257 -225 0
273 -225 0
274 -225 0
275 -225 0
276 -225 0
-257 -241 0
273 -241 0
274 -241 0
275 -241 0
276 -241 0
273 -257 0
274 -257 0
275 -257 0
276 -257 0
273 274 0
273 275 0
273 276 0
274 275 0
274 276 0
275 276 0
-2 -18 0
-34 -2 0
-277 -2 0
-34 -18 0
-277 -18 0
-277 -34 0
-66 -50 0
-82 -50 0
-278 -50 0
-82 -66 0
-278 -66 0
-278 -82 0
-114 -98 0
-130 -98 0
-279 -98 0
-130 -114 0
-279 -114 0
-279 -130 0
-162 -146 0
-178 -146 0
-280 -146 0
-178 -162 0
-280 -162 0
-280 -178 0
-210 -194 0
-194 -226 0
-194 -242 0
-194 -258 0
277 -194 0
-194 278 0
-194 279 0
280 -194 0
-210 -226 0
-210 -242 0
-210 -258 0
277 -210 0
-210 278 0
-210 279 0
280 -210 0
-226 -242 0
-226 -258 0
277 -226 0
-226 278 0
-226 279 0
280 -226 0
-242 -258 0
277 -242 0
-242 278 0
-242 279 0
280 -242 0
277 -258 0
-258 278 0
-258 279 0
280 -258 0
277 278 0
277 279 0
280 277 0
278 279 0
280 278 0
280 279 0
-19 -3 0
-35 -3 0
-3 -281 0
-35 -19 0
-19 -281 0
-35 -281 0
-51 -67 0
-51 -83 0
-51 -282 0
-67 -83 0
-67 -282 0
-83 -282 0
-99 -115 0
-131 -99 0
-283 -99 0
-131 -115 0
-283 -115 0
-283 -131 0
-163 -147 0
-179 -147 0
-284 -147 0
-179 -163 0
-284 -163 0
-284 -179 0
-211 -195 0
-227 -195 0
-243 -195 0
-259 -195 0
281 -195 0
282 -195 0
283 -195 0
284 -195 0
-227 -211 0
-243 -211 0
-259 -211 0
281 -211 0
282 -211 0
283 -211 0
284 -211 0
-243 -227 0
-259 -227 0
281 -227 0
282 -227 0
283 -227 0
284 -227 0
-259 -243 0
281 -243 0
282 -243 0
283 -243 0
284 -243 0
281 -259 0
282 -259 0
283 -259 0
284 -259 0
281 282 0
281 283 0
281 284 0
282 283 0
282 284 0
283 284 0
-4 -20 0
-36 -4 0
-285 -4 0
-36 -20 0
-285 -20 0
-285 -36 0
-68 -52 0
-84 -52 0
-286 -52 0
-84 -68 0
-286 -68 0
-286 -84 0
-116 -100 0
-132 -100 0
-287 -100 0
-132 -116 0
-287 -116 0
-287 -132 0
-148 -164 0
-148 -180 0
-288 -148 0
-164 -180 0
-288 -164 0
-288 -180 0
-196 -212 0
-196 -228 0
-196 -244 0
-196 -260 0
-196 285 0
-196 286 0
-196 287 0
288 -196 0
-212 -228 0
-212 -244 0
-212 -260 0
-212 285 0
-212 286 0
-212 287 0
288 -212 0
-228 -244 0
-228 -260 0
-228 285 0
-228 286 0
-228 287 0
288 -228 0
-244 -260 0
-244 285 0
-244 286 0
-244 287 0
288 -244 0
-260 285 0
-260 286 0
-260 287 0
288 -260 0
285 286 0
285 287 0
288 285 0
286 287 0
288 286 0
288 287 0
-5 -21 0
-5 -37 0
-5 -289 0
-21 -37 0
-21 -289 0
-37 -289 0
-53 -69 0
-53 -85 0
-53 -290 0
-69 -85 0
-69 -290 0
-85 -290 0
-101 -117 0
-101 -133 0
-101 -291 0
-117 -133 0
-117 -291 0
-133 -291 0
-165 -149 0
-181 -149 0
-149 -292 0
-181 -165 0
-165 -292 0
-181 -292 0
-213 -197 0
-229 -197 0
-245 -197 0
-197 -261 0
289 -197 0
290 -197 0
291 -197 0
-197 292 0
-229 -213 0
-245 -213 0
-213 -261 0
289 -213 0
290 -213 0
291 -213 0
-213 292 0
-245 -229 0
-229 -261 0
289 -229 0
290 -229 0
291 -229 0
-229 292 0
-245 -261 0
289 -245 0
290 -245 0
291 -245 0
-245 292 0
289 -261 0
290 -261 0
291 -261 0
-261 292 0
289 290 0
289 291 0
289 292 0
290 291 0
290 292 0
291 292 0
-6 -22 0
-38 -6 0
-6 -293 0
-38 -22 0
-22 -293 0
-38 -293 0
-70 -54 0
-86 -54 0
-294 -54 0
-86 -70 0
-294 -70 0
-294 -86 0
-102 -118 0
-102 -134 0
-295 -102 0
-118 -134 0
-295 -118 0
-295 -134 0
-150 -166 0
-150 -182 0
-296 -150 0
-166 -182 0
-296 -166 0
-296 -182 0
-198 -214 0
-198 -230 0
-198 -246 0
-198 -262 0
-198 293 0
-198 294 0
-198 295 0
296 -198 0
-214 -230 0
-214 -246 0
-214 -262 0
-214 293 0
-214 294 0
-214 295 0
296 -214 0
-230 -246 0
-230 -262 0
-230 293 0
-230 294 0
-230 295 0
296 -230 0
-246 -262 0
-246 293 0
-246 294 0
-246 295 0
296 -246 0
-262 293 0
-262 294 0
-262 295 0
296 -262 0
293 294 0
293 295 0
296 293 0
294 295 0
296 294 0
296 295 0
-7 -23 0
-7 -39 0
-7 -297 0
-23 -39 0
-23 -297 0
-39 -297 0
-55 -71 0
-55 -87 0
-55 -298 0
-71 -87 0
-71 -298 0
-87 -298 0
-103 -119 0
-103 -135 0
-103 -299 0
-119 -135 0
-119 -299 0
-135 -299 0
-167 -151 0
-183 -151 0
-151 -300 0
-183 -167 0
-167 -300 0
-183 -300 0
-199 -215 0
-199 -231 0
-199 -247 0
-199 -263 0
-199 297 0
-199 298 0
-199 299 0
-199 300 0
-215 -231 0
-215 -247 0
-215 -263 0
-215 297 0
-215 298 0
-215 299 0
-215 300 0
-231 -247 0
-231 -263 0
-231 297 0
-231 298 0
-231 299 0
-231 300 0
-247 -263 0
-247 297 0
-247 298 0
-247 299 0
-247 300 0
-263 297 0
-263 298 0
-263 299 0
-263 300 0
297 298 0
297 299 0
297 300 0
298 299 0
298 300 0
299 300 0
-8 -24 0
-8 -40 0
-8 -301 0
-24 -40 0
-24 -301 0
-40 -301 0
-56 -72 0
-56 -88 0
-56 -302 0
-72 -88 0
-72 -302 0
-88 -302 0
-104 -120 0
-104 -136 0
-104 -303 0
-120 -136 0
-120 -303 0
-136 -303 0
-152 -168 0
-152 -184 0
-152 -304 0
-168 -184 0
-168 -304 0
-184 -304 0
-200 -216 0
-200 -232 0
-200 -248 0
-200 -264 0
-200 301 0
-200 302 0
-200 303 0
-200 304 0
-216 -232 0
-216 -248 0
-216 -264 0
-216 301 0
-216 302 0
-216 303 0
-216 304 0
-232 -248 0
-232 -264 0
-232 301 0
-232 302 0
-232 303 0
-232 304 0
-248 -264 0
-248 301 0
-248 302 0
-248 303 0
-248 304 0
-264 301 0
-264 302 0
-264 303 0
-264 304 0
301 302 0
301 303 0
304 301 0
302 303 0
304 302 0
304 303 0
-25 -9 0
-41 -9 0
-305 -9 0
-41 -25 0
-305 -25 0
-305 -41 0
-73 -57 0
-89 -57 0
-306 -57 0
-89 -73 0
-306 -73 0
-306 -89 0
-121 -105 0
-137 -105 0
-307 -105 0
-137 -121 0
-307 -121 0
-307 -137 0
-169 -153 0
-185 -153 0
-308 -153 0
-185 -169 0
-308 -169 0
-308 -185 0
-217 -201 0
-233 -201 0
-249 -201 0
-265 -201 0
305 -201 0
306 -201 0
307 -201 0
308 -201 0
-233 -217 0
-249 -217 0
-265 -217 0
305 -217 0
306 -217 0
307 -217 0
308 -217 0
-249 -233 0
-265 -233 0
305 -233 0
306 -233 0
307 -233 0
308 -233 0
-265 -249 0
305 -249 0
306 -249 0
307 -249 0
308 -249 0
305 -265 0
306 -265 0
307 -265 0
308 -265 0
305 306 0
305 307 0
305 308 0
306 307 0
306 308 0
307 308 0
-10 -26 0
-42 -10 0
-309 -10 0
-42 -26 0
-309 -26 0
-309 -42 0
-74 -58 0
-90 -58 0
-310 -58 0
-90 -74 0
-310 -74 0
-310 -90 0
-122 -106 0
-138 -106 0
-311 -106 0
-138 -122 0
-311 -122 0
-311 -138 0
-170 -154 0
-186 -154 0
-312 -154 0
-186 -170 0
-312 -170 0
-312 -186 0
-218 -202 0
-202 -234 0
-202 -250 0
-202 -266 0
309 -202 0
310 -202 0
-202 311 0
312 -202 0
-218 -234 0
-218 -250 0
-218 -266 0
309 -218 0
310 -218 0
-218 311 0
312 -218 0
-234 -250 0
-234 -266 0
309 -234 0
310 -234 0
-234 311 0
312 -234 0
-250 -266 0
309 -250 0
310 -250 0
-250 311 0
312 -250 0
309 -266 0
310 -266 0
-266 311 0
312 -266 0
309 310 0
309 311 0
312 309 0
310 311 0
312 310 0
312 311 0
-27 -11 0
-43 -11 0
-11 -313 0
-43 -27 0
-27 -313 0
-43 -313 0
-59 -75 0
-59 -91 0
-59 -314 0
-75 -91 0
-75 -314 0
-91 -314 0
-107 -123 0
-139 -107 0
-315 -107 0
-139 -123 0
-315 -123 0
-315 -139 0
-171 -155 0
-187 -155 0
-316 -155 0
-187 -171 0
-316 -171 0
-316 -187 0
-219 -203 0
-235 -203 0
-251 -203 0
-267 -203 0
313 -203 0
314 -203 0
315 -203 0
316 -203 0
-235 -219 0
-251 -219 0
-267 -219 0
313 -219 0
314 -219 0
315 -219 0
316 -219 0
-251 -235 0
-267 -235 0
313 -235 0
314 -235 0
315 -235 0
316 -235 0
-267 -251 0
313 -251 0
314 -251 0
315 -251 0
316 -251 0
313 -267 0
314 -267 0
315 -267 0
316 -267 0
313 314 0
313 315 0
313 316 0
314 315 0
314 316 0
315 316 0
-12 -28 0
-44 -12 0
-317 -12 0
-44 -28 0
-317 -28 0
-317 -44 0
-76 -60 0
-92 -60 0
-318 -60 0
-92 -76 0
-318 -76 0
-318 -92 0
-124 -108 0
-140 -108 0
-319 -108 0
-140 -124 0
-319 -124 0
-319 -140 0
-156 -172 0
-156 -188 0
-320 -156 0
-172 -188 0
-320 -172 0
-320 -188 0
-204 -220 0
-204 -236 0
-204 -252 0
-204 -268 0
-204 317 0
-204 318 0
-204 319 0
320 -204 0
-220 -236 0
-220 -252 0
-220 -268 0
-220 317 0
-220 318 0
-220 319 0
320 -220 0
-236 -252 0
-236 -268 0
-236 317 0
-236 318 0
-236 319 0
320 -236 0
-252 -268 0
-252 317 0
-252 318 0
-252 319 0
320 -252 0
-268 317 0
-268 318 0
-268 319 0
320 -268 0
317 318 0
317 319 0
320 317 0
318 319 0
320 318 0
320 319 0
-13 -29 0
-13 -45 0
-13 -321 0
-29 -45 0
-29 -321 0
-45 -321 0
-61 -77 0
-61 -93 0
-61 -322 0
-77 -93 0
-77 -322 0
-93 -322 0
-109 -125 0
-109 -141 0
-109 -323 0
-125 -141 0
-125 -323 0
-141 -323 0
-173 -157 0
-189 -157 0
-157 -324 0
-189 -173 0
-173 -324 0
-189 -324 0
-221 -205 0
-237 -205 0
-253 -205 0
-205 -269 0
321 -205 0
322 -205 0
323 -205 0
-205 324 0
-237 -221 0
-253 -221 0
-221 -269 0
321 -221 0
322 -221 0
323 -221 0
-221 324 0
-253 -237 0
-237 -269 0
321 -237 0
322 -237 0
323 -237 0
-237 324 0
-253 -269 0
321 -253 0
322 -253 0
323 -253 0
-253 324 0
321 -269 0
322 -269 0
323 -269 0
-269 324 0
321 322 0
321 323 0
321 324 0
322 323 0
322 324 0
323 324 0
-14 -30 0
-46 -14 0
-14 -325 0
-46 -30 0
-30 -325 0
-46 -325 0
-78 -62 0
-94 -62 0
-326 -62 0
-94 -78 0
-326 -78 0
-326 -94 0
-110 -126 0
-110 -142 0
-327 -110 0
-126 -142 0
-327 -126 0
-327 -142 0
-158 -174 0
-158 -190 0
-328 -158 0
-174 -190 0
-328 -174 0
-328 -190 0
-206 -222 0
-206 -238 0
-206 -254 0
-206 -270 0
-206 325 0
-206 326 0
-206 327 0
328 -206 0
-222 -238 0
-222 -254 0
-222 -270 0
-222 325 0
-222 326 0
-222 327 0
328 -222 0
-238 -254 0
-238 -270 0
-238 325 0
-238 326 0
-238 327 0
328 -238 0
-254 -270 0
-254 325 0
-254 326 0
-254 327 0
328 -254 0
-270 325 0
-270 326 0
-270 327 0
328 -270 0
325 326 0
325 327 0
328 325 0
326 327 0
328 326 0
328 327 0
-15 -31 0
-15 -47 0
-15 -329 0
-31 -47 0
-31 -329 0
-47 -329 0
-63 -79 0
-63 -95 0
-63 -330 0
-79 -95 0
-79 -330 0
-95 -330 0
-111 -127 0
-111 -143 0
-111 -331 0
-127 -143 0
-127 -331 0
-143 -331 0
-175 -159 0
-191 -159 0
-159 -332 0
-191 -175 0
-175 -332 0
-191 -332 0
-207 -223 0
-207 -239 0
-207 -255 0
-207 -271 0
329 -207 0
-207 330 0
-207 331 0
-207 332 0
-223 -239 0
-223 -255 0
-223 -271 0
329 -223 0
-223 330 0
-223 331 0
-223 332 0
-239 -255 0
-239 -271 0
329 -239 0
-239 330 0
-239 331 0
-239 332 0
-255 -271 0
329 -255 0
-255 330 0
-255 331 0
-255 332 0
329 -271 0
-271 330 0
-271 331 0
-271 332 0
329 330 0
329 331 0
329 332 0
330 331 0
330 332 0
331 332 0
-16 -32 0
-16 -48 0
-16 -333 0
-32 -48 0
-32 -333 0
-48 -333 0
-64 -80 0
-64 -96 0
-64 -334 0
-80 -96 0
-80 -334 0
-96 -334 0
-112 -128 0
-112 -144 0
-112 -335 0
-128 -144 0
-128 -335 0
-144 -335 0
-160 -176 0
-160 -192 0
-160 -336 0
-176 -192 0
-176 -336 0
-192 -336 0
-208 -224 0
-208 -240 0
-208 -256 0
-208 -272 0
-208 333 0
-208 334 0
-208 335 0
-208 336 0
-224 -240 0
-224 -256 0
-224 -272 0
-224 333 0
-224 334 0
-224 335 0
-224 336 0
-240 -256 0
-240 -272 0
-240 333 0
-240 334 0
-240 335 0
-240 336 0
-256 -272 0
-256 333 0
-256 334 0
-256 335 0
-256 336 0
-272 333 0
-272 334 0
-272 335 0
-272 336 0
333 334 0
333 335 0
336 333 0
334 335 0
336 334 0
336 335 0
